Geographic Exponential Decay
40 311 282 318 169 143 42 268 243 122 231 92 161 31 11 256 215 109 133 171 124 251 56 294 209 198 76 301 241 233 158 222 150 289 168 64 293 57 183 27 195
p edge 320 1270
e 0 238 1.0
e 1 6 1.0
e 2 109 71.0
e 3 76 35.0
e 3 72 1.0
e 4 78 6.0
e 4 274 12.0
e 5 178 7.0
e 5 160 6.0
e 5 78 9.0
e 5 108 1.0
e 7 131 2.0
e 8 258 3.0
e 9 25 5.0
e 10 294 71.0
e 10 16 6.0
e 11 106 98.0
e 11 296 80.0
e 11 98 60.0
e 11 253 67.0
e 11 134 47.0
e 11 174 10.0
e 11 47 78.0
e 11 51 20.0
e 11 165 14.0
e 11 132 32.0
e 11 295 44.0
e 11 152 64.0
e 11 230 43.0
e 11 214 52.0
e 11 58 29.0
e 11 39 68.0
e 11 19 32.0
e 11 127 95.0
e 11 283 30.0
e 11 205 34.0
e 11 255 2.0
e 11 220 84.0
e 11 276 71.0
e 11 302 14.0
e 11 240 40.0
e 11 153 61.0
e 11 242 40.0
e 12 241 18.0
e 13 122 41.0
e 13 182 5.0
e 14 224 1.0
e 15 139 4.0
e 15 101 1.0
e 17 64 49.0
e 18 203 2.0
e 18 187 9.0
e 18 252 8.0
e 18 101 1.0
e 19 253 1.0
e 20 283 1.0
e 20 200 2.0
e 21 25 4.0
e 22 143 9.0
e 22 316 10.0
e 22 141 9.0
e 22 166 10.0
e 23 256 57.0
e 23 280 3.0
e 24 225 1.0
e 26 294 80.0
e 27 256 86.0
e 27 141 11.0
e 27 196 5.0
e 27 203 32.0
e 27 257 79.0
e 27 19 3.0
e 27 73 1.0
e 27 312 46.0
e 27 169 45.0
e 27 272 83.0
e 27 217 2.0
e 27 234 9.0
e 27 44 96.0
e 27 109 51.0
e 27 15 3.0
e 27 294 53.0
e 27 253 40.0
e 27 230 77.0
e 27 17 78.0
e 27 32 29.0
e 27 10 9.0
e 27 129 26.0
e 27 208 11.0
e 27 28 60.0
e 27 261 83.0
e 27 97 92.0
e 27 96 69.0
e 28 191 33.0
e 28 87 23.0
e 28 244 6.0
e 28 247 34.0
e 28 88 9.0
e 28 146 26.0
e 28 85 23.0
e 28 113 22.0
e 28 147 36.0
e 28 245 6.0
e 28 4 15.0
e 28 317 36.0
e 28 179 13.0
e 29 285 2.0
e 30 88 10.0
e 30 280 5.0
e 30 239 10.0
e 30 302 6.0
e 31 74 56.0
e 31 19 47.0
e 31 72 73.0
e 31 220 27.0
e 31 93 26.0
e 31 318 73.0
e 31 290 95.0
e 31 210 85.0
e 31 69 84.0
e 31 20 43.0
e 31 280 25.0
e 31 251 92.0
e 31 157 99.0
e 31 250 11.0
e 31 44 46.0
e 31 197 15.0
e 31 287 16.0
e 31 299 59.0
e 31 0 64.0
e 31 133 86.0
e 31 160 91.0
e 31 215 79.0
e 31 4 61.0
e 31 132 36.0
e 31 286 39.0
e 31 77 8.0
e 31 194 39.0
e 33 206 2.0
e 34 89 2.0
e 34 285 5.0
e 34 227 13.0
e 34 8 23.0
e 34 81 1.0
e 34 311 87.0
e 34 14 8.0
e 35 218 2.0
e 36 58 4.0
e 36 209 46.0
e 37 47 13.0
e 38 275 1.0
e 38 169 74.0
e 38 52 7.0
e 38 101 11.0
e 40 213 2.0
e 41 208 20.0
e 41 204 1.0
e 42 158 33.0
e 42 154 50.0
e 42 11 23.0
e 42 155 38.0
e 42 93 97.0
e 42 13 32.0
e 42 153 21.0
e 42 252 38.0
e 42 237 15.0
e 42 114 98.0
e 42 152 53.0
e 42 224 70.0
e 42 129 95.0
e 42 47 85.0
e 42 43 19.0
e 42 197 63.0
e 42 271 14.0
e 42 38 6.0
e 42 45 4.0
e 42 156 55.0
e 42 25 20.0
e 42 35 90.0
e 42 188 61.0
e 42 53 32.0
e 42 186 42.0
e 42 19 80.0
e 42 198 41.0
e 43 242 5.0
e 44 169 100.0
e 44 237 9.0
e 46 112 2.0
e 47 117 2.0
e 47 178 19.0
e 47 120 6.0
e 47 308 8.0
e 48 26 5.0
e 48 248 5.0
e 49 125 6.0
e 50 296 32.0
e 50 245 48.0
e 50 156 44.0
e 50 81 45.0
e 50 73 41.0
e 50 206 6.0
e 50 316 16.0
e 50 153 28.0
e 50 226 9.0
e 50 232 26.0
e 50 10 34.0
e 50 236 8.0
e 50 29 1.0
e 50 11 78.0
e 53 93 1.0
e 53 110 8.0
e 53 39 12.0
e 54 224 5.0
e 54 92 10.0
e 55 51 22.0
e 55 148 5.0
e 55 181 13.0
e 55 132 16.0
e 55 293 11.0
e 55 5 22.0
e 55 49 3.0
e 56 120 51.0
e 56 155 93.0
e 56 267 23.0
e 56 24 66.0
e 56 99 4.0
e 56 89 1.0
e 56 124 36.0
e 56 54 80.0
e 56 262 89.0
e 56 125 90.0
e 56 57 82.0
e 56 74 10.0
e 56 16 4.0
e 56 62 82.0
e 56 289 53.0
e 56 297 95.0
e 56 162 40.0
e 56 104 90.0
e 56 252 63.0
e 56 172 62.0
e 56 210 98.0
e 56 200 36.0
e 56 230 55.0
e 56 83 43.0
e 56 221 72.0
e 56 165 53.0
e 56 255 54.0
e 57 192 98.0
e 57 162 50.0
e 57 210 83.0
e 57 221 27.0
e 57 63 12.0
e 57 185 30.0
e 57 279 11.0
e 57 141 11.0
e 57 186 39.0
e 57 13 49.0
e 57 302 93.0
e 57 173 38.0
e 57 52 49.0
e 57 142 59.0
e 57 118 95.0
e 57 242 63.0
e 57 318 96.0
e 57 2 73.0
e 57 259 68.0
e 57 125 18.0
e 57 256 81.0
e 57 309 90.0
e 57 208 70.0
e 57 212 59.0
e 57 292 67.0
e 57 152 46.0
e 59 125 8.0
e 59 250 8.0
e 59 163 4.0
e 59 302 1.0
e 60 79 5.0
e 61 235 2.0
e 62 97 3.0
e 64 191 85.0
e 64 176 75.0
e 64 118 81.0
e 64 54 37.0
e 64 121 5.0
e 64 101 74.0
e 64 45 88.0
e 64 241 64.0
e 64 165 47.0
e 64 66 33.0
e 64 47 4.0
e 64 171 46.0
e 64 269 54.0
e 64 192 93.0
e 64 174 16.0
e 64 38 76.0
e 64 255 57.0
e 64 76 19.0
e 64 43 26.0
e 64 107 42.0
e 64 133 77.0
e 64 258 82.0
e 64 314 46.0
e 64 310 52.0
e 64 305 73.0
e 64 225 14.0
e 65 145 2.0
e 66 275 1.0
e 67 248 1.0
e 67 281 5.0
e 68 254 11.0
e 68 313 4.0
e 68 317 9.0
e 68 228 1.0
e 69 6 6.0
e 70 122 57.0
e 71 209 27.0
e 73 153 24.0
e 73 24 3.0
e 75 50 21.0
e 75 24 1.0
e 75 192 3.0
e 75 190 10.0
e 76 187 35.0
e 76 300 52.0
e 76 179 91.0
e 76 66 63.0
e 76 41 36.0
e 76 171 24.0
e 76 105 19.0
e 76 297 1.0
e 76 150 38.0
e 76 248 8.0
e 76 34 54.0
e 76 75 83.0
e 76 312 17.0
e 76 88 57.0
e 76 175 3.0
e 76 151 74.0
e 76 277 53.0
e 76 194 49.0
e 76 47 88.0
e 76 74 81.0
e 76 313 31.0
e 76 256 97.0
e 76 189 84.0
e 76 181 49.0
e 76 236 1.0
e 77 201 4.0
e 78 228 8.0
e 78 307 3.0
e 79 6 4.0
e 79 291 7.0
e 79 313 3.0
e 80 7 1.0
e 82 75 5.0
e 82 312 1.0
e 83 157 1.0
e 83 241 78.0
e 83 8 9.0
e 84 51 4.0
e 84 109 85.0
e 86 231 46.0
e 90 7 1.0
e 91 304 1.0
e 92 62 74.0
e 92 87 60.0
e 92 26 95.0
e 92 13 79.0
e 92 65 48.0
e 92 255 13.0
e 92 78 2.0
e 92 158 92.0
e 92 311 99.0
e 92 223 47.0
e 92 53 53.0
e 92 312 91.0
e 92 283 66.0
e 92 68 31.0
e 92 235 95.0
e 92 221 87.0
e 92 297 40.0
e 92 295 29.0
e 92 69 63.0
e 92 144 66.0
e 92 241 33.0
e 92 33 86.0
e 92 209 74.0
e 92 152 99.0
e 92 93 39.0
e 92 8 35.0
e 94 292 1.0
e 95 209 37.0
e 96 156 2.0
e 98 82 12.0
e 98 156 11.0
e 98 92 83.0
e 99 150 43.0
e 100 135 3.0
e 100 214 1.0
e 102 257 2.0
e 102 147 3.0
e 103 175 5.0
e 103 273 2.0
e 105 11 55.0
e 107 229 1.0
e 107 291 22.0
e 107 55 11.0
e 107 211 3.0
e 107 166 6.0
e 107 215 85.0
e 109 312 90.0
e 109 6 79.0
e 109 114 11.0
e 109 165 46.0
e 109 268 15.0
e 109 130 46.0
e 109 86 10.0
e 109 111 68.0
e 109 52 49.0
e 109 11 99.0
e 109 122 96.0
e 109 121 84.0
e 109 98 86.0
e 109 307 11.0
e 109 142 46.0
e 109 172 71.0
e 109 5 52.0
e 109 41 73.0
e 109 315 40.0
e 109 139 74.0
e 109 184 20.0
e 109 100 57.0
e 109 304 1.0
e 109 93 40.0
e 110 314 2.0
e 111 130 2.0
e 115 278 3.0
e 116 314 13.0
e 117 289 95.0
e 117 184 2.0
e 117 43 11.0
e 118 156 4.0
e 118 304 1.0
e 119 252 8.0
e 119 231 51.0
e 119 153 24.0
e 119 154 2.0
e 122 138 53.0
e 122 262 7.0
e 122 147 35.0
e 122 293 89.0
e 122 183 97.0
e 122 169 48.0
e 122 226 14.0
e 122 98 89.0
e 122 131 99.0
e 122 185 33.0
e 122 186 7.0
e 122 178 4.0
e 122 44 71.0
e 122 227 72.0
e 122 99 35.0
e 122 295 60.0
e 122 273 26.0
e 122 7 11.0
e 122 8 40.0
e 122 194 86.0
e 122 118 74.0
e 122 119 16.0
e 122 133 49.0
e 122 165 59.0
e 123 149 2.0
e 124 73 95.0
e 124 172 54.0
e 124 25 11.0
e 124 273 43.0
e 124 12 70.0
e 124 4 15.0
e 124 240 28.0
e 124 271 9.0
e 124 265 75.0
e 124 255 59.0
e 124 83 3.0
e 124 22 37.0
e 124 210 100.0
e 124 96 54.0
e 124 43 41.0
e 124 266 88.0
e 124 169 49.0
e 124 318 78.0
e 124 262 80.0
e 124 126 13.0
e 124 190 2.0
e 124 194 70.0
e 124 141 19.0
e 124 312 55.0
e 124 85 61.0
e 124 272 74.0
e 127 172 1.0
e 128 130 1.0
e 128 20 1.0
e 133 138 8.0
e 133 97 11.0
e 133 175 60.0
e 133 271 4.0
e 133 196 67.0
e 133 4 71.0
e 133 176 49.0
e 133 23 33.0
e 133 28 49.0
e 133 177 49.0
e 133 83 35.0
e 133 91 19.0
e 133 200 10.0
e 133 48 93.0
e 133 224 29.0
e 133 265 30.0
e 133 109 57.0
e 133 281 13.0
e 133 74 39.0
e 133 134 68.0
e 133 173 62.0
e 133 151 82.0
e 133 65 100.0
e 133 302 27.0
e 136 256 93.0
e 137 143 79.0
e 139 208 15.0
e 139 227 2.0
e 140 112 1.0
e 140 110 2.0
e 143 51 73.0
e 143 120 20.0
e 143 90 2.0
e 143 225 32.0
e 143 3 38.0
e 143 194 56.0
e 143 192 32.0
e 143 155 31.0
e 143 45 44.0
e 143 243 44.0
e 143 104 48.0
e 143 282 15.0
e 143 190 79.0
e 143 220 44.0
e 143 151 44.0
e 143 82 72.0
e 143 72 91.0
e 143 216 14.0
e 143 189 86.0
e 143 177 1.0
e 143 48 8.0
e 143 253 86.0
e 143 52 76.0
e 143 232 35.0
e 143 230 39.0
e 144 4 1.0
e 146 188 11.0
e 146 208 3.0
e 146 143 1.0
e 150 103 18.0
e 150 84 99.0
e 150 227 42.0
e 150 216 50.0
e 150 181 90.0
e 150 300 26.0
e 150 297 23.0
e 150 157 42.0
e 150 281 91.0
e 150 206 51.0
e 150 271 74.0
e 150 194 81.0
e 150 133 18.0
e 150 74 47.0
e 150 234 20.0
e 150 224 48.0
e 150 211 55.0
e 150 70 50.0
e 150 170 42.0
e 150 225 34.0
e 150 303 26.0
e 150 130 61.0
e 150 124 69.0
e 150 276 86.0
e 150 81 56.0
e 153 208 14.0
e 153 70 15.0
e 158 307 11.0
e 158 57 31.0
e 158 312 2.0
e 158 187 98.0
e 158 282 24.0
e 158 242 14.0
e 158 285 44.0
e 158 308 75.0
e 158 196 39.0
e 158 134 3.0
e 158 120 7.0
e 158 220 21.0
e 158 116 82.0
e 158 118 53.0
e 158 94 72.0
e 158 226 88.0
e 158 247 33.0
e 158 17 37.0
e 158 201 7.0
e 158 283 3.0
e 158 10 54.0
e 158 300 92.0
e 158 215 86.0
e 158 108 21.0
e 158 155 34.0
e 159 57 14.0
e 161 292 91.0
e 161 141 53.0
e 161 209 44.0
e 161 216 34.0
e 161 263 31.0
e 161 96 59.0
e 161 191 81.0
e 161 221 37.0
e 161 133 12.0
e 161 66 53.0
e 161 222 32.0
e 161 271 74.0
e 161 170 79.0
e 161 117 18.0
e 161 192 12.0
e 161 193 4.0
e 161 298 54.0
e 161 57 44.0
e 161 176 83.0
e 161 261 98.0
e 161 99 30.0
e 161 97 45.0
e 161 43 4.0
e 161 299 75.0
e 161 257 89.0
e 161 132 32.0
e 161 65 95.0
e 163 137 2.0
e 164 170 3.0
e 164 40 12.0
e 164 279 8.0
e 164 149 2.0
e 167 58 2.0
e 167 257 6.0
e 168 183 87.0
e 168 195 7.0
e 168 95 8.0
e 168 81 27.0
e 168 256 57.0
e 168 5 84.0
e 168 184 81.0
e 168 252 9.0
e 168 214 78.0
e 168 307 26.0
e 168 173 74.0
e 168 282 76.0
e 168 269 24.0
e 168 20 51.0
e 168 299 57.0
e 168 172 38.0
e 168 74 14.0
e 168 247 85.0
e 168 124 10.0
e 168 111 53.0
e 168 93 62.0
e 168 288 74.0
e 168 177 13.0
e 168 145 37.0
e 168 318 87.0
e 168 118 55.0
e 168 54 78.0
e 169 113 61.0
e 169 6 73.0
e 169 114 7.0
e 169 74 3.0
e 169 127 35.0
e 169 190 75.0
e 169 265 92.0
e 169 37 93.0
e 169 281 65.0
e 169 193 58.0
e 169 228 100.0
e 169 183 54.0
e 169 109 31.0
e 169 35 14.0
e 169 123 60.0
e 169 160 46.0
e 169 238 86.0
e 169 297 42.0
e 169 54 11.0
e 169 118 45.0
e 169 282 26.0
e 169 125 76.0
e 170 158 96.0
e 171 306 1.0
e 171 291 97.0
e 171 276 63.0
e 171 280 45.0
e 171 71 38.0
e 171 12 52.0
e 171 292 69.0
e 171 253 93.0
e 171 149 70.0
e 171 178 76.0
e 171 283 21.0
e 171 75 41.0
e 171 223 92.0
e 171 16 87.0
e 171 197 26.0
e 171 129 43.0
e 171 211 84.0
e 171 241 1.0
e 171 69 30.0
e 171 88 21.0
e 171 157 58.0
e 171 310 36.0
e 171 237 7.0
e 171 220 8.0
e 171 314 50.0
e 174 42 4.0
e 174 79 5.0
e 175 256 24.0
e 180 166 6.0
e 180 155 1.0
e 180 174 6.0
e 180 298 8.0
e 183 170 49.0
e 183 242 6.0
e 183 178 99.0
e 183 75 26.0
e 183 314 43.0
e 183 143 78.0
e 183 256 48.0
e 183 251 95.0
e 183 42 65.0
e 183 116 67.0
e 183 131 91.0
e 183 137 79.0
e 183 117 88.0
e 183 280 29.0
e 183 159 58.0
e 183 316 18.0
e 183 126 33.0
e 183 275 86.0
e 183 293 23.0
e 183 53 48.0
e 183 224 50.0
e 183 234 97.0
e 183 11 88.0
e 183 20 83.0
e 195 24 88.0
e 195 218 81.0
e 195 265 34.0
e 195 185 66.0
e 195 201 55.0
e 195 57 87.0
e 195 241 16.0
e 195 45 19.0
e 195 133 11.0
e 195 15 8.0
e 195 246 53.0
e 195 176 55.0
e 195 267 45.0
e 195 219 16.0
e 195 118 93.0
e 195 31 1.0
e 195 235 51.0
e 195 102 82.0
e 195 228 49.0
e 195 263 50.0
e 195 200 53.0
e 195 71 82.0
e 195 303 50.0
e 195 75 52.0
e 195 178 53.0
e 195 36 11.0
e 198 185 10.0
e 198 261 55.0
e 198 147 63.0
e 198 263 66.0
e 198 181 72.0
e 198 174 29.0
e 198 168 60.0
e 198 125 47.0
e 198 292 29.0
e 198 12 5.0
e 198 67 41.0
e 198 190 87.0
e 198 214 37.0
e 198 243 20.0
e 198 236 7.0
e 198 175 33.0
e 198 10 96.0
e 198 113 24.0
e 198 238 99.0
e 198 169 89.0
e 198 152 44.0
e 198 50 11.0
e 198 186 87.0
e 198 1 16.0
e 198 277 34.0
e 198 176 8.0
e 199 171 56.0
e 199 79 12.0
e 199 154 12.0
e 199 37 3.0
e 202 13 5.0
e 203 11 40.0
e 203 227 7.0
e 205 148 2.0
e 206 309 7.0
e 207 283 5.0
e 207 45 1.0
e 208 18 4.0
e 209 210 32.0
e 209 133 22.0
e 209 173 80.0
e 209 176 55.0
e 209 6 60.0
e 209 91 86.0
e 209 96 60.0
e 209 220 66.0
e 209 30 22.0
e 209 60 14.0
e 209 295 85.0
e 209 269 75.0
e 209 293 64.0
e 209 175 80.0
e 209 100 35.0
e 209 150 81.0
e 209 301 86.0
e 209 302 9.0
e 209 19 8.0
e 209 51 62.0
e 209 31 70.0
e 209 32 71.0
e 215 268 12.0
e 215 7 46.0
e 215 171 64.0
e 215 96 11.0
e 215 61 53.0
e 215 210 47.0
e 215 124 17.0
e 215 318 22.0
e 215 111 53.0
e 215 276 29.0
e 215 60 3.0
e 215 284 20.0
e 215 172 37.0
e 215 199 15.0
e 215 123 83.0
e 215 1 55.0
e 215 261 23.0
e 215 127 10.0
e 215 264 43.0
e 215 239 41.0
e 215 190 70.0
e 215 88 85.0
e 215 62 53.0
e 215 260 34.0
e 217 304 4.0
e 222 131 49.0
e 222 255 95.0
e 222 267 23.0
e 222 194 76.0
e 222 71 32.0
e 222 40 17.0
e 222 233 95.0
e 222 271 47.0
e 222 249 79.0
e 222 166 92.0
e 222 130 16.0
e 222 47 4.0
e 222 183 99.0
e 222 97 4.0
e 222 253 1.0
e 222 35 53.0
e 222 289 100.0
e 222 170 6.0
e 222 204 83.0
e 222 189 9.0
e 222 62 82.0
e 222 269 37.0
e 222 65 15.0
e 222 102 13.0
e 222 141 49.0
e 222 8 11.0
e 223 80 6.0
e 223 210 12.0
e 223 117 20.0
e 223 176 13.0
e 223 91 23.0
e 231 280 90.0
e 231 15 48.0
e 231 301 42.0
e 231 267 43.0
e 231 237 77.0
e 231 239 33.0
e 231 20 23.0
e 231 293 23.0
e 231 135 53.0
e 231 256 55.0
e 231 68 34.0
e 231 178 80.0
e 231 286 10.0
e 231 109 47.0
e 231 270 24.0
e 231 182 83.0
e 231 117 50.0
e 231 276 50.0
e 231 2 4.0
e 231 300 21.0
e 231 201 62.0
e 231 215 76.0
e 231 34 12.0
e 231 123 21.0
e 231 236 1.0
e 233 317 65.0
e 233 119 22.0
e 233 268 35.0
e 233 226 73.0
e 233 95 26.0
e 233 136 98.0
e 233 230 40.0
e 233 265 74.0
e 233 132 40.0
e 233 302 21.0
e 233 292 89.0
e 233 177 81.0
e 233 5 54.0
e 233 106 21.0
e 233 316 23.0
e 233 191 70.0
e 233 36 94.0
e 233 213 89.0
e 233 0 12.0
e 233 313 43.0
e 233 57 92.0
e 233 179 47.0
e 233 67 65.0
e 233 159 14.0
e 233 30 17.0
e 233 154 34.0
e 235 257 5.0
e 240 105 21.0
e 240 311 76.0
e 240 125 10.0
e 240 100 23.0
e 240 218 6.0
e 241 177 69.0
e 241 255 100.0
e 241 221 99.0
e 241 89 68.0
e 241 260 89.0
e 241 251 43.0
e 241 233 57.0
e 241 201 25.0
e 241 245 23.0
e 241 142 80.0
e 241 293 83.0
e 241 115 93.0
e 241 69 5.0
e 241 308 47.0
e 241 228 79.0
e 241 152 66.0
e 241 165 65.0
e 241 63 21.0
e 241 298 95.0
e 241 93 9.0
e 241 168 63.0
e 243 79 79.0
e 243 244 48.0
e 243 252 94.0
e 243 103 4.0
e 243 313 8.0
e 243 115 3.0
e 243 303 92.0
e 243 304 98.0
e 243 119 27.0
e 243 123 91.0
e 243 113 14.0
e 243 104 2.0
e 243 90 70.0
e 243 15 63.0
e 243 219 60.0
e 243 57 88.0
e 243 13 63.0
e 243 8 98.0
e 243 14 34.0
e 243 302 24.0
e 243 314 78.0
e 243 306 80.0
e 243 83 60.0
e 243 58 53.0
e 243 254 73.0
e 247 183 13.0
e 249 258 5.0
e 251 115 70.0
e 251 185 85.0
e 251 165 14.0
e 251 105 58.0
e 251 225 8.0
e 251 301 34.0
e 251 45 68.0
e 251 304 66.0
e 251 167 80.0
e 251 2 20.0
e 251 221 75.0
e 251 299 60.0
e 251 166 47.0
e 251 168 57.0
e 251 84 27.0
e 251 149 34.0
e 251 156 63.0
e 251 138 79.0
e 251 202 78.0
e 251 222 57.0
e 251 300 26.0
e 251 6 27.0
e 251 128 95.0
e 251 274 65.0
e 254 247 22.0
e 254 58 20.0
e 254 90 21.0
e 254 141 17.0
e 254 313 9.0
e 256 85 80.0
e 256 179 4.0
e 256 260 40.0
e 256 7 91.0
e 256 87 81.0
e 256 247 66.0
e 256 157 37.0
e 256 58 34.0
e 256 166 49.0
e 256 173 80.0
e 256 255 78.0
e 256 180 10.0
e 256 174 61.0
e 256 160 84.0
e 256 169 72.0
e 256 266 53.0
e 256 223 80.0
e 256 190 80.0
e 259 183 8.0
e 261 235 21.0
e 261 305 36.0
e 261 70 20.0
e 263 110 11.0
e 268 280 91.0
e 268 262 3.0
e 268 87 29.0
e 268 37 5.0
e 268 60 14.0
e 268 38 56.0
e 268 235 92.0
e 268 12 8.0
e 268 55 38.0
e 268 136 59.0
e 268 202 9.0
e 268 217 6.0
e 268 222 81.0
e 268 130 89.0
e 268 306 18.0
e 268 264 73.0
e 268 7 77.0
e 268 9 61.0
e 268 185 49.0
e 268 284 22.0
e 268 311 80.0
e 268 27 58.0
e 268 65 18.0
e 268 141 70.0
e 270 138 3.0
e 271 157 22.0
e 274 18 7.0
e 274 12 11.0
e 278 237 4.0
e 282 155 56.0
e 282 62 97.0
e 282 103 59.0
e 282 133 63.0
e 282 1 89.0
e 282 212 57.0
e 282 255 19.0
e 282 126 98.0
e 282 12 89.0
e 282 127 98.0
e 282 310 31.0
e 282 97 70.0
e 282 297 91.0
e 282 242 58.0
e 282 289 69.0
e 282 200 20.0
e 282 254 51.0
e 282 253 99.0
e 282 64 64.0
e 282 217 92.0
e 282 28 81.0
e 282 58 82.0
e 282 207 84.0
e 289 92 6.0
e 289 103 75.0
e 289 263 81.0
e 289 196 24.0
e 289 276 59.0
e 289 268 2.0
e 289 250 41.0
e 289 239 86.0
e 289 187 49.0
e 289 217 29.0
e 289 95 51.0
e 289 51 94.0
e 289 75 98.0
e 289 13 27.0
e 289 218 46.0
e 289 223 10.0
e 289 264 11.0
e 289 291 47.0
e 289 242 21.0
e 289 36 37.0
e 289 138 64.0
e 289 163 90.0
e 289 286 62.0
e 290 234 4.0
e 293 182 23.0
e 293 23 46.0
e 293 52 82.0
e 293 179 55.0
e 293 301 88.0
e 293 98 10.0
e 293 164 52.0
e 293 168 45.0
e 293 227 64.0
e 293 289 92.0
e 293 22 89.0
e 293 306 49.0
e 293 184 17.0
e 293 2 56.0
e 293 139 80.0
e 293 155 69.0
e 293 126 68.0
e 293 232 50.0
e 293 125 77.0
e 293 78 32.0
e 293 311 71.0
e 294 234 76.0
e 294 256 80.0
e 294 245 39.0
e 294 222 51.0
e 294 16 100.0
e 294 59 31.0
e 294 19 10.0
e 294 162 13.0
e 294 156 76.0
e 294 86 80.0
e 294 126 27.0
e 294 217 63.0
e 294 136 77.0
e 294 17 54.0
e 294 94 75.0
e 294 60 35.0
e 294 28 94.0
e 294 9 97.0
e 294 290 33.0
e 294 21 30.0
e 294 44 71.0
e 294 243 71.0
e 294 174 43.0
e 294 179 68.0
e 298 172 9.0
e 301 126 81.0
e 301 9 96.0
e 301 318 6.0
e 301 99 45.0
e 301 219 6.0
e 301 233 21.0
e 301 278 69.0
e 301 86 42.0
e 301 105 61.0
e 301 94 92.0
e 301 132 95.0
e 301 63 97.0
e 301 264 1.0
e 301 76 80.0
e 301 247 7.0
e 301 122 10.0
e 301 283 53.0
e 301 117 77.0
e 301 226 85.0
e 301 182 29.0
e 301 285 1.0
e 301 3 3.0
e 301 142 76.0
e 303 23 5.0
e 305 161 69.0
e 305 136 29.0
e 305 31 35.0
e 305 45 46.0
e 305 61 6.0
e 305 47 29.0
e 305 224 24.0
e 305 289 56.0
e 305 49 36.0
e 305 185 29.0
e 305 117 48.0
e 305 145 5.0
e 311 2 44.0
e 311 73 43.0
e 311 139 26.0
e 311 289 65.0
e 311 205 21.0
e 311 71 49.0
e 311 195 99.0
e 311 109 80.0
e 311 147 68.0
e 311 192 75.0
e 311 249 92.0
e 311 309 88.0
e 311 14 68.0
e 311 79 27.0
e 311 187 5.0
e 311 201 42.0
e 311 275 45.0
e 311 17 94.0
e 311 66 63.0
e 311 143 92.0
e 311 76 7.0
e 311 9 52.0
e 314 220 20.0
e 315 77 45.0
e 315 154 22.0
e 315 54 26.0
e 315 256 44.0
e 315 146 36.0
e 315 195 98.0
e 315 197 39.0
e 315 271 17.0
e 315 40 3.0
e 315 281 1.0
e 315 238 49.0
e 315 126 11.0
e 315 65 41.0
e 318 300 82.0
e 318 307 16.0
e 318 95 26.0
e 318 217 11.0
e 318 279 17.0
e 318 207 89.0
e 318 311 74.0
e 318 9 43.0
e 318 16 29.0
e 318 72 57.0
e 318 202 61.0
e 318 60 21.0
e 318 174 50.0
e 318 271 35.0
e 318 206 79.0
e 318 39 49.0
e 318 275 10.0
e 318 10 26.0
e 318 242 74.0
e 318 52 71.0
e 318 270 29.0
e 319 98 6.0
